c ! encoding i-pc 250
p cnf 550 1078
-251 0
145 -252 0
79 -253 0
251 -254 0
251 -255 0
251 -256 0
170 -258 0
257 -258 0
258 -259 0
78 -259 0
260 -261 0
261 -262 0
-78 -262 0
259 262 -263 0
-117 -264 0
155 -264 0
265 0
266 -267 0
267 -268 0
-155 -268 0
264 268 -269 0
142 -270 0
-232 -270 0
263 -271 0
269 -271 0
270 -271 0
271 -272 0
240 -272 0
170 -273 0
78 -273 0
260 -274 0
274 -275 0
-78 -275 0
273 275 -276 0
276 -277 0
105 -277 0
277 -278 0
232 -278 0
263 -279 0
-232 -279 0
278 279 -280 0
280 -283 0
281 -283 0
266 -283 0
282 -283 0
283 -284 0
-240 -284 0
272 284 -285 0
286 -287 0
287 -288 0
214 -288 0
57 -289 0
-214 -289 0
288 289 -290 0
290 -291 0
184 -291 0
291 -292 0
143 -292 0
293 -295 0
286 -295 0
294 -295 0
295 -296 0
-143 -296 0
292 296 -297 0
-203 -298 0
131 -298 0
299 -300 0
300 -301 0
-131 -301 0
298 301 -302 0
285 -303 0
297 -303 0
302 -303 0
135 -303 0
303 -305 0
304 -305 0
305 -306 0
99 -306 0
263 -308 0
269 -308 0
270 -308 0
307 -308 0
308 -309 0
240 -309 0
280 -310 0
135 -310 0
263 -311 0
-232 -311 0
311 -312 0
-135 -312 0
310 312 -313 0
313 -314 0
281 -314 0
266 -314 0
282 -314 0
314 -315 0
-240 -315 0
309 315 -316 0
290 -317 0
143 -317 0
286 -318 0
294 -318 0
318 -319 0
-143 -319 0
317 319 -320 0
320 -321 0
302 -321 0
321 -322 0
184 -322 0
-143 -323 0
203 -323 0
286 -324 0
294 -324 0
323 -325 0
324 -325 0
325 -326 0
-184 -326 0
322 326 -327 0
316 -328 0
327 -328 0
-14 -328 0
328 -329 0
-99 -329 0
306 329 -330 0
64 -331 0
-144 -331 0
-241 -331 0
331 -332 0
148 -332 0
333 -334 0
334 -335 0
144 -335 0
-241 -336 0
-144 -336 0
335 336 -337 0
64 -338 0
339 -340 0
340 -341 0
-64 -341 0
338 341 -342 0
337 -343 0
342 -343 0
343 -344 0
-148 -344 0
332 344 -345 0
3 -346 0
-5 -346 0
13 -346 0
15 -346 0
-19 -346 0
22 -346 0
-30 -346 0
-36 -346 0
38 -346 0
40 -346 0
-41 -346 0
43 -346 0
-44 -346 0
-48 -346 0
53 -346 0
66 -346 0
69 -346 0
74 -346 0
76 -346 0
86 -346 0
-89 -346 0
92 -346 0
-93 -346 0
95 -346 0
-97 -346 0
-115 -346 0
120 -346 0
124 -346 0
-130 -346 0
136 -346 0
-146 -346 0
-150 -346 0
160 -346 0
161 -346 0
-165 -346 0
173 -346 0
-175 -346 0
-176 -346 0
-190 -346 0
195 -346 0
-196 -346 0
198 -346 0
200 -346 0
204 -346 0
206 -346 0
-207 -346 0
-210 -346 0
219 -346 0
-220 -346 0
-224 -346 0
228 -346 0
-234 -346 0
-237 -346 0
-239 -346 0
242 -346 0
249 -346 0
250 -346 0
347 -350 0
348 -350 0
349 -350 0
330 -351 0
345 -351 0
346 -351 0
350 -351 0
351 -352 0
-29 -352 0
256 352 -353 0
353 -355 0
354 -355 0
355 -356 0
251 -357 0
356 357 -358 0
183 -359 0
358 -360 0
359 -360 0
360 -361 0
255 361 -362 0
362 -363 0
-75 -363 0
363 -364 0
199 -364 0
251 -365 0
251 -366 0
367 -369 0
368 -369 0
-203 -370 0
369 -370 0
370 -371 0
48 -371 0
299 -372 0
368 -372 0
372 -373 0
93 -373 0
299 -374 0
374 -375 0
204 -375 0
-203 -376 0
-204 -376 0
375 376 -377 0
377 -378 0
-93 -378 0
373 378 -379 0
379 -380 0
-48 -380 0
371 380 -381 0
347 -382 0
382 -383 0
250 -383 0
-9 -384 0
-250 -384 0
383 384 -385 0
184 -387 0
386 -387 0
387 -388 0
176 -388 0
293 -389 0
389 -390 0
-176 -390 0
388 390 -391 0
304 -392 0
392 -393 0
72 -393 0
14 -394 0
-72 -394 0
393 394 -395 0
-5 -396 0
-57 -396 0
-64 -396 0
-74 -396 0
105 -396 0
-131 -396 0
-135 -396 0
-142 -396 0
-143 -396 0
144 -396 0
150 -396 0
155 -396 0
170 -396 0
-190 -396 0
-200 -396 0
-206 -396 0
214 -396 0
-232 -396 0
-240 -396 0
397 -401 0
398 -401 0
333 -401 0
399 -401 0
400 -401 0
266 -401 0
381 -402 0
385 -402 0
391 -402 0
395 -402 0
396 -402 0
401 -402 0
402 -403 0
210 -403 0
251 -404 0
-5 -405 0
-57 -405 0
-64 -405 0
-74 -405 0
105 -405 0
-131 -405 0
-135 -405 0
-142 -405 0
-143 -405 0
144 -405 0
150 -405 0
155 -405 0
170 -405 0
-190 -405 0
-200 -405 0
-206 -405 0
214 -405 0
-232 -405 0
-240 -405 0
397 -406 0
398 -406 0
333 -406 0
399 -406 0
400 -406 0
266 -406 0
381 -407 0
385 -407 0
391 -407 0
395 -407 0
405 -407 0
406 -407 0
407 -408 0
404 408 -409 0
409 -411 0
410 -411 0
411 -412 0
-210 -412 0
403 412 -413 0
413 -414 0
251 -415 0
414 415 -416 0
416 -418 0
417 -418 0
418 -419 0
251 -420 0
419 420 -421 0
78 -422 0
421 -423 0
422 -423 0
423 -424 0
366 424 -425 0
425 -427 0
426 -427 0
427 -428 0
365 428 -429 0
429 -430 0
-199 -430 0
431 -433 0
251 -438 0
169 -440 0
251 -441 0
251 -442 0
251 -443 0
-14 -444 0
72 -444 0
444 -445 0
190 -445 0
395 -446 0
-190 -446 0
445 446 -447 0
381 -448 0
447 -448 0
448 -449 0
113 -449 0
-203 -450 0
48 -450 0
299 -451 0
451 -452 0
-48 -452 0
450 452 -453 0
-14 -454 0
72 -454 0
93 -454 0
190 -454 0
453 -455 0
454 -455 0
368 -455 0
455 -456 0
-113 -456 0
449 456 -457 0
-5 -458 0
-74 -458 0
-200 -458 0
-206 -458 0
457 -459 0
385 -459 0
458 -459 0
397 -459 0
459 -460 0
150 -460 0
461 -462 0
462 -463 0
72 -463 0
-5 -464 0
-72 -464 0
463 464 -465 0
74 -466 0
250 -466 0
465 -467 0
466 -467 0
347 -467 0
467 -468 0
200 -468 0
385 -469 0
-5 -469 0
349 -469 0
469 -471 0
470 -471 0
471 -472 0
-200 -472 0
468 472 -473 0
473 -474 0
14 -474 0
200 -475 0
5 -475 0
476 -477 0
477 -478 0
-5 -478 0
475 478 -479 0
479 -480 0
74 -480 0
-5 -481 0
-200 -481 0
481 -482 0
-74 -482 0
480 482 -483 0
483 -484 0
347 -484 0
484 -485 0
250 -485 0
-5 -486 0
-9 -486 0
-200 -486 0
486 -487 0
470 -487 0
487 -488 0
-250 -488 0
485 488 -489 0
489 -490 0
72 -490 0
490 -491 0
-14 -491 0
474 491 -492 0
175 -493 0
122 -493 0
397 -494 0
494 -495 0
-122 -495 0
493 495 -496 0
492 -497 0
496 -497 0
497 -500 0
498 -500 0
499 -500 0
500 -501 0
206 -501 0
-5 -502 0
-74 -502 0
-200 -502 0
447 -503 0
385 -503 0
502 -503 0
397 -503 0
503 -504 0
-206 -504 0
501 504 -505 0
505 -506 0
381 -506 0
506 -507 0
-150 -507 0
460 507 -508 0
-57 -509 0
-64 -509 0
105 -509 0
-135 -509 0
-142 -509 0
-143 -509 0
144 -509 0
155 -509 0
170 -509 0
214 -509 0
-232 -509 0
-240 -509 0
333 -512 0
398 -512 0
510 -512 0
399 -512 0
400 -512 0
266 -512 0
511 -512 0
391 -513 0
508 -513 0
512 -513 0
251 -515 0
517 -518 0
251 -520 0
78 -522 0
-131 -522 0
251 -533 0
-169 -535 0
536 -537 0
251 -538 0
251 -541 0
-79 -543 0
251 -547 0
-145 -549 0
1 0
-2 0
4 0
6 0
7 0
-8 0
-10 0
11 0
-16 0
-17 0
-18 0
-20 0
-21 0
-23 0
24 0
25 0
-26 0
27 0
-28 0
31 0
-32 0
-33 0
34 0
35 0
-37 0
39 0
42 0
-45 0
-46 0
-47 0
-49 0
50 0
-52 0
55 0
56 0
58 0
59 0
60 0
61 0
62 0
63 0
-65 0
-67 0
-70 0
71 0
73 0
77 0
80 0
-81 0
82 0
-83 0
84 0
-85 0
87 0
88 0
-90 0
-91 0
-94 0
-96 0
-98 0
100 0
101 0
-102 0
103 0
104 0
106 0
-107 0
-108 0
109 0
-110 0
111 0
112 0
-114 0
-116 0
121 0
123 0
-125 0
126 0
-127 0
128 0
129 0
132 0
-133 0
134 0
138 0
139 0
141 0
-147 0
-149 0
-152 0
-153 0
154 0
156 0
157 0
-158 0
159 0
-162 0
-164 0
-166 0
-167 0
168 0
172 0
-174 0
-177 0
-179 0
180 0
-181 0
182 0
-185 0
-186 0
187 0
-188 0
-189 0
-191 0
-192 0
193 0
-194 0
-197 0
201 0
202 0
205 0
-208 0
-209 0
-211 0
-212 0
-213 0
215 0
216 0
-217 0
-218 0
221 0
222 0
-223 0
225 0
-226 0
227 0
-229 0
230 0
231 0
233 0
235 0
-236 0
-238 0
-244 0
245 0
246 0
-247 0
-248 0
243 547 0
-544 545 0
-543 544 0
-542 543 0
118 541 0
-540 542 0
-151 537 0
-532 534 0
-523 524 0
-522 523 0
-521 523 0
-519 521 0
-518 519 0
-517 518 0
-516 518 0
-514 516 0
-513 514 0
-512 513 0
-511 512 0
163 510 0
-509 513 0
-508 513 0
-506 507 0
-505 506 0
-503 504 0
-502 503 0
-499 500 0
-527 528 0
-68 499 0
-498 500 0
-496 497 0
-495 496 0
-122 493 0
-492 497 0
-489 490 0
-488 489 0
-487 488 0
-486 487 0
-485 489 0
-483 484 0
-482 483 0
-481 482 0
-480 483 0
-479 480 0
-478 479 0
-474 492 0
-469 471 0
-468 473 0
-465 467 0
-464 465 0
-462 463 0
-461 462 0
-5 461 475 0
-459 460 0
-458 459 0
-510 512 0
113 456 0
-413 414 0
146 346 0
-390 391 0
-444 445 0
-382 383 0
-120 346 0
115 346 0
-490 491 0
-200 346 468 475 476 0
-265 267 274 287 295 300 318 334 340 372 374 382 392 451 462 477 494 0
-92 346 0
184 293 326 0
89 346 0
-371 381 0
-178 404 0
-372 373 0
30 346 0
-548 549 0
-537 539 0
-471 472 0
-375 377 0
-546 548 0
-530 531 0
-400 401 406 512 0
-161 346 0
-69 346 0
-53 346 0
44 346 0
-43 346 0
-277 278 0
-175 397 493 0
-268 269 0
78 262 275 0
-470 471 487 0
74 396 405 458 470 482 502 0
-325 326 0
165 346 0
-463 465 0
-326 327 0
196 346 0
3 400 0
-38 346 0
-170 258 260 273 396 405 509 0
-22 346 0
-300 301 0
-308 309 0
-66 346 0
-310 313 0
-86 346 0
-345 351 0
150 346 507 0
-344 345 0
-343 344 0
64 341 396 405 509 0
-412 413 0
-336 337 0
-335 337 0
-144 335 396 405 509 0
9 347 384 486 0
-333 334 401 406 512 0
-57 286 289 0
-337 343 0
-280 283 310 0
97 346 0
-190 445 454 498 0
-285 303 0
130 346 0
-284 285 0
57 286 396 405 509 0
-40 346 0
-3 346 400 0
207 346 0
-504 505 0
240 284 315 396 405 509 0
-370 371 0
-14 304 394 474 0
-364 431 0
-493 496 0
-240 272 309 0
131 301 323 396 405 522 0
-391 402 407 513 0
36 346 398 0
-76 346 0
-494 495 0
48 346 380 452 0
-305 306 0
-529 530 0
-399 401 406 512 0
237 346 0
-184 291 293 322 387 0
-258 259 0
241 331 333 336 0
-274 275 0
-13 346 0
-303 305 0
-286 287 295 318 324 0
-383 385 0
-142 270 281 0
-319 320 0
-500 501 0
-54 254 441 0
-359 360 0
-331 332 0
-466 467 0
-422 423 0
-117 266 0
-545 546 0
232 270 279 311 396 405 509 0
-321 322 0
-304 305 392 0
-297 303 0
-394 395 0
-232 278 0
-272 285 0
-451 452 0
-349 350 469 0
-183 359 366 0
-329 330 0
-367 369 0
-302 303 321 0
-473 474 0
-379 380 0
171 386 0
-484 485 0
-72 349 393 444 454 463 490 0
-342 343 0
-316 328 0
-261 262 0
-51 255 365 443 0
-457 459 0
-259 263 0
-476 477 0
-279 280 0
-347 350 382 467 484 0
105 257 0
170 260 0
-278 280 0
-78 259 273 422 522 0
-446 447 0
-298 302 0
155 268 282 0
-323 325 0
-276 277 0
-124 346 0
-290 291 317 0
-307 308 0
-497 500 0
204 368 376 0
-283 284 0
144 331 336 0
-327 328 0
-549 550 0
-143 292 317 0
-262 263 0
-260 261 274 0
-397 401 406 459 494 503 0
-346 351 0
-330 351 0
-501 505 0
-289 290 0
-287 288 0
203 298 299 370 376 450 0
-339 340 0
214 289 294 0
-291 292 0
-395 402 407 446 0
-292 297 0
-456 457 0
29 352 0
-392 393 0
-270 271 308 0
-507 508 0
117 264 266 0
-210 403 511 0
-293 295 389 0
-311 312 0
-48 371 450 0
-437 439 0
-322 327 0
-195 346 0
-429 430 0
-340 341 0
-173 346 0
-295 296 0
-135 303 307 310 0
143 296 319 323 396 405 509 0
-203 299 323 0
-328 329 0
-450 453 0
-214 288 294 396 405 509 0
-402 403 0
-296 297 0
-294 295 318 324 0
-393 395 0
-271 272 0
99 329 0
151 538 0
-301 302 0
-306 330 0
-472 473 0
135 307 312 396 405 509 0
-320 321 0
19 346 0
-449 457 0
-338 342 0
-309 316 0
-93 367 373 454 0
-95 346 0
-313 314 0
-314 315 0
-405 407 0
-341 342 0
-315 316 0
-12 348 0
-431 433 0
-324 325 0
-264 269 0
-263 271 279 308 311 0
-401 402 0
-64 331 338 0
-74 346 466 470 480 0
-269 271 308 0
-267 268 0
-368 369 372 455 0
-257 258 0
-15 346 0
137 438 533 0
-273 276 0
-275 276 0
-206 346 501 0
-148 332 0
-281 283 314 0
-332 345 0
14 304 328 444 454 491 0
-241 333 0
-317 320 0
-160 346 0
-467 468 0
75 363 0
-36 398 0
175 346 397 0
-373 379 0
176 346 390 0
-288 290 0
-299 300 372 374 451 0
-406 407 0
190 346 396 405 446 498 0
-421 423 0
-351 352 0
-204 346 368 375 0
-455 456 0
-403 413 0
-219 346 0
220 346 0
224 346 0
-312 313 0
-228 346 0
234 346 0
-439 440 0
-334 335 0
239 346 415 515 0
-242 346 399 0
-249 346 0
142 281 396 405 509 0
-385 402 407 459 469 503 0
-250 346 383 466 485 0
-9 347 0
-534 535 0
72 349 394 464 0
-524 525 0
-361 362 0
-350 351 0
-352 353 0
-475 479 0
-353 355 0
-131 298 0
-354 355 0
-355 356 0
-136 346 0
-356 358 0
140 357 420 520 0
-358 360 0
-460 508 0
-360 361 0
-525 526 0
-362 363 0
-526 527 0
-363 364 0
-155 264 282 396 405 509 0
-369 370 0
-374 375 0
-376 377 0
-539 540 0
-377 378 0
-380 381 0
-282 283 314 0
-381 402 407 448 506 0
250 384 488 0
-447 448 503 0
-384 385 0
-445 447 0
-387 388 0
41 346 0
-388 391 0
-389 390 0
-198 346 0
-378 379 0
-491 492 0
-416 418 0
-348 350 0
-531 532 0
200 396 405 458 472 476 481 486 502 0
206 396 405 458 504 0
-266 267 283 314 401 406 512 0
-396 402 0
-199 364 442 0
-398 401 406 512 0
242 399 0
174 432 509 0
-407 408 0
-408 409 0
-88 432 522 0
-176 388 0
-409 411 0
-410 411 0
-411 412 0
-414 416 0
-119 339 0
-528 529 0
-417 418 0
-150 396 405 460 0
-418 419 0
-419 421 0
-423 424 0
-424 425 0
93 346 367 378 0
-425 427 0
-427 428 0
-428 429 0
-436 437 0
-430 431 0
-432 433 0
-433 434 0
-318 319 0
-434 435 0
-477 478 0
-435 436 0
-426 427 0
-386 387 0
-448 449 0
-452 453 0
-453 455 0
-454 455 0
